\ LP format - for model browsing. Use MPS format to capture full model detail.
Minimize
  p0 + p1 + p2 + p3 + p4 + p5 + p6
Subject To
 R0: x0,1_6 + x0,2_6 + x0,3_6 + x0,4_6 + x0,5_6 + x0,6_6 + x1,2_6 + x1,3_6
   + x1,4_6 + x1,5_6 + x1,6_6 + x2,3_6 + x2,4_6 + x2,5_6 + x2,6_6 + x3,4_6
   + x3,5_6 + x3,6_6 + x4,5_6 + x4,6_6 + x5,6_6 = 1
 R1: x0,1_13 + x0,2_13 + x0,3_13 + x0,4_13 + x0,5_13 + x0,6_13 + x1,2_13
   + x1,3_13 + x1,4_13 + x1,5_13 + x1,6_13 + x2,3_13 + x2,4_13 + x2,5_13
   + x2,6_13 + x3,4_13 + x3,5_13 + x3,6_13 + x4,5_13 + x4,6_13 + x5,6_13
   = 1
 R2: x0,1_18 + x0,2_18 + x0,3_18 + x0,4_18 + x0,5_18 + x0,6_18 + x1,2_18
   + x1,3_18 + x1,4_18 + x1,5_18 + x1,6_18 + x2,3_18 + x2,4_18 + x2,5_18
   + x2,6_18 + x3,4_18 + x3,5_18 + x3,6_18 + x4,5_18 + x4,6_18 + x5,6_18
   = 1
 R3: x0,1_19 + x0,2_19 + x0,3_19 + x0,4_19 + x0,5_19 + x0,6_19 + x1,2_19
   + x1,3_19 + x1,4_19 + x1,5_19 + x1,6_19 + x2,3_19 + x2,4_19 + x2,5_19
   + x2,6_19 + x3,4_19 + x3,5_19 + x3,6_19 + x4,5_19 + x4,6_19 + x5,6_19
   = 2
 R4: x0,1_25 + x0,2_25 + x0,3_25 + x0,4_25 + x0,5_25 + x0,6_25 + x1,2_25
   + x1,3_25 + x1,4_25 + x1,5_25 + x1,6_25 + x2,3_25 + x2,4_25 + x2,5_25
   + x2,6_25 + x3,4_25 + x3,5_25 + x3,6_25 + x4,5_25 + x4,6_25 + x5,6_25
   = 1
 R5: x0,1_29 + x0,2_29 + x0,3_29 + x0,4_29 + x0,5_29 + x0,6_29 + x1,2_29
   + x1,3_29 + x1,4_29 + x1,5_29 + x1,6_29 + x2,3_29 + x2,4_29 + x2,5_29
   + x2,6_29 + x3,4_29 + x3,5_29 + x3,6_29 + x4,5_29 + x4,6_29 + x5,6_29
   = 1
 R6: x0,1_37 + x0,2_37 + x0,3_37 + x0,4_37 + x0,5_37 + x0,6_37 + x1,2_37
   + x1,3_37 + x1,4_37 + x1,5_37 + x1,6_37 + x2,3_37 + x2,4_37 + x2,5_37
   + x2,6_37 + x3,4_37 + x3,5_37 + x3,6_37 + x4,5_37 + x4,6_37 + x5,6_37
   = 1
 R7: x0,1_38 + x0,2_38 + x0,3_38 + x0,4_38 + x0,5_38 + x0,6_38 + x1,2_38
   + x1,3_38 + x1,4_38 + x1,5_38 + x1,6_38 + x2,3_38 + x2,4_38 + x2,5_38
   + x2,6_38 + x3,4_38 + x3,5_38 + x3,6_38 + x4,5_38 + x4,6_38 + x5,6_38
   = 1
 R8: x0,1_42 + x0,2_42 + x0,3_42 + x0,4_42 + x0,5_42 + x0,6_42 + x1,2_42
   + x1,3_42 + x1,4_42 + x1,5_42 + x1,6_42 + x2,3_42 + x2,4_42 + x2,5_42
   + x2,6_42 + x3,4_42 + x3,5_42 + x3,6_42 + x4,5_42 + x4,6_42 + x5,6_42
   = 1
 R9: x0,1_43 + x0,2_43 + x0,3_43 + x0,4_43 + x0,5_43 + x0,6_43 + x1,2_43
   + x1,3_43 + x1,4_43 + x1,5_43 + x1,6_43 + x2,3_43 + x2,4_43 + x2,5_43
   + x2,6_43 + x3,4_43 + x3,5_43 + x3,6_43 + x4,5_43 + x4,6_43 + x5,6_43
   = 1
 R10: x0,1_48 + x0,2_48 + x0,3_48 + x0,4_48 + x0,5_48 + x0,6_48 + x1,2_48
   + x1,3_48 + x1,4_48 + x1,5_48 + x1,6_48 + x2,3_48 + x2,4_48 + x2,5_48
   + x2,6_48 + x3,4_48 + x3,5_48 + x3,6_48 + x4,5_48 + x4,6_48 + x5,6_48
   = 1
 R11: x0,1_56 + x0,2_56 + x0,3_56 + x0,4_56 + x0,5_56 + x0,6_56 + x1,2_56
   + x1,3_56 + x1,4_56 + x1,5_56 + x1,6_56 + x2,3_56 + x2,4_56 + x2,5_56
   + x2,6_56 + x3,4_56 + x3,5_56 + x3,6_56 + x4,5_56 + x4,6_56 + x5,6_56
   = 1
 R12: x0,1_67 + x0,2_67 + x0,3_67 + x0,4_67 + x0,5_67 + x0,6_67 + x1,2_67
   + x1,3_67 + x1,4_67 + x1,5_67 + x1,6_67 + x2,3_67 + x2,4_67 + x2,5_67
   + x2,6_67 + x3,4_67 + x3,5_67 + x3,6_67 + x4,5_67 + x4,6_67 + x5,6_67
   = 1
 R13: x0,1_85 + x0,2_85 + x0,3_85 + x0,4_85 + x0,5_85 + x0,6_85 + x1,2_85
   + x1,3_85 + x1,4_85 + x1,5_85 + x1,6_85 + x2,3_85 + x2,4_85 + x2,5_85
   + x2,6_85 + x3,4_85 + x3,5_85 + x3,6_85 + x4,5_85 + x4,6_85 + x5,6_85
   = 1
 R14: x0,1_6 + x0,1_13 + x0,1_18 + x0,1_19 + x0,1_25 + x0,1_29 + x0,1_37
   + x0,1_38 + x0,1_42 + x0,1_43 + x0,1_48 + x0,1_56 + x0,1_67 + x0,1_85
   <= 1
 R15: x0,2_6 + x0,2_13 + x0,2_18 + x0,2_19 + x0,2_25 + x0,2_29 + x0,2_37
   + x0,2_38 + x0,2_42 + x0,2_43 + x0,2_48 + x0,2_56 + x0,2_67 + x0,2_85
   <= 1
 R16: x0,3_6 + x0,3_13 + x0,3_18 + x0,3_19 + x0,3_25 + x0,3_29 + x0,3_37
   + x0,3_38 + x0,3_42 + x0,3_43 + x0,3_48 + x0,3_56 + x0,3_67 + x0,3_85
   <= 1
 R17: x0,4_6 + x0,4_13 + x0,4_18 + x0,4_19 + x0,4_25 + x0,4_29 + x0,4_37
   + x0,4_38 + x0,4_42 + x0,4_43 + x0,4_48 + x0,4_56 + x0,4_67 + x0,4_85
   <= 1
 R18: x0,5_6 + x0,5_13 + x0,5_18 + x0,5_19 + x0,5_25 + x0,5_29 + x0,5_37
   + x0,5_38 + x0,5_42 + x0,5_43 + x0,5_48 + x0,5_56 + x0,5_67 + x0,5_85
   <= 1
 R19: x0,6_6 + x0,6_13 + x0,6_18 + x0,6_19 + x0,6_25 + x0,6_29 + x0,6_37
   + x0,6_38 + x0,6_42 + x0,6_43 + x0,6_48 + x0,6_56 + x0,6_67 + x0,6_85
   <= 1
 R20: x1,2_6 + x1,2_13 + x1,2_18 + x1,2_19 + x1,2_25 + x1,2_29 + x1,2_37
   + x1,2_38 + x1,2_42 + x1,2_43 + x1,2_48 + x1,2_56 + x1,2_67 + x1,2_85
   <= 1
 R21: x1,3_6 + x1,3_13 + x1,3_18 + x1,3_19 + x1,3_25 + x1,3_29 + x1,3_37
   + x1,3_38 + x1,3_42 + x1,3_43 + x1,3_48 + x1,3_56 + x1,3_67 + x1,3_85
   <= 1
 R22: x1,4_6 + x1,4_13 + x1,4_18 + x1,4_19 + x1,4_25 + x1,4_29 + x1,4_37
   + x1,4_38 + x1,4_42 + x1,4_43 + x1,4_48 + x1,4_56 + x1,4_67 + x1,4_85
   <= 1
 R23: x1,5_6 + x1,5_13 + x1,5_18 + x1,5_19 + x1,5_25 + x1,5_29 + x1,5_37
   + x1,5_38 + x1,5_42 + x1,5_43 + x1,5_48 + x1,5_56 + x1,5_67 + x1,5_85
   <= 1
 R24: x1,6_6 + x1,6_13 + x1,6_18 + x1,6_19 + x1,6_25 + x1,6_29 + x1,6_37
   + x1,6_38 + x1,6_42 + x1,6_43 + x1,6_48 + x1,6_56 + x1,6_67 + x1,6_85
   <= 1
 R25: x2,3_6 + x2,3_13 + x2,3_18 + x2,3_19 + x2,3_25 + x2,3_29 + x2,3_37
   + x2,3_38 + x2,3_42 + x2,3_43 + x2,3_48 + x2,3_56 + x2,3_67 + x2,3_85
   <= 1
 R26: x2,4_6 + x2,4_13 + x2,4_18 + x2,4_19 + x2,4_25 + x2,4_29 + x2,4_37
   + x2,4_38 + x2,4_42 + x2,4_43 + x2,4_48 + x2,4_56 + x2,4_67 + x2,4_85
   <= 1
 R27: x2,5_6 + x2,5_13 + x2,5_18 + x2,5_19 + x2,5_25 + x2,5_29 + x2,5_37
   + x2,5_38 + x2,5_42 + x2,5_43 + x2,5_48 + x2,5_56 + x2,5_67 + x2,5_85
   <= 1
 R28: x2,6_6 + x2,6_13 + x2,6_18 + x2,6_19 + x2,6_25 + x2,6_29 + x2,6_37
   + x2,6_38 + x2,6_42 + x2,6_43 + x2,6_48 + x2,6_56 + x2,6_67 + x2,6_85
   <= 1
 R29: x3,4_6 + x3,4_13 + x3,4_18 + x3,4_19 + x3,4_25 + x3,4_29 + x3,4_37
   + x3,4_38 + x3,4_42 + x3,4_43 + x3,4_48 + x3,4_56 + x3,4_67 + x3,4_85
   <= 1
 R30: x3,5_6 + x3,5_13 + x3,5_18 + x3,5_19 + x3,5_25 + x3,5_29 + x3,5_37
   + x3,5_38 + x3,5_42 + x3,5_43 + x3,5_48 + x3,5_56 + x3,5_67 + x3,5_85
   <= 1
 R31: x3,6_6 + x3,6_13 + x3,6_18 + x3,6_19 + x3,6_25 + x3,6_29 + x3,6_37
   + x3,6_38 + x3,6_42 + x3,6_43 + x3,6_48 + x3,6_56 + x3,6_67 + x3,6_85
   <= 1
 R32: x4,5_6 + x4,5_13 + x4,5_18 + x4,5_19 + x4,5_25 + x4,5_29 + x4,5_37
   + x4,5_38 + x4,5_42 + x4,5_43 + x4,5_48 + x4,5_56 + x4,5_67 + x4,5_85
   <= 1
 R33: x4,6_6 + x4,6_13 + x4,6_18 + x4,6_19 + x4,6_25 + x4,6_29 + x4,6_37
   + x4,6_38 + x4,6_42 + x4,6_43 + x4,6_48 + x4,6_56 + x4,6_67 + x4,6_85
   <= 1
 R34: x5,6_6 + x5,6_13 + x5,6_18 + x5,6_19 + x5,6_25 + x5,6_29 + x5,6_37
   + x5,6_38 + x5,6_42 + x5,6_43 + x5,6_48 + x5,6_56 + x5,6_67 + x5,6_85
   <= 1
 R35: p0 - p1 <= -1
 R36: - 6 x0,1_6 - p0 + p1 >= 0
 R37: 545 x0,1_6 - p0 + p1 <= 551
 R38: - 13 x0,1_13 - p0 + p1 >= 0
 R39: 545 x0,1_13 - p0 + p1 <= 558
 R40: - 18 x0,1_18 - p0 + p1 >= 0
 R41: 545 x0,1_18 - p0 + p1 <= 563
 R42: - 19 x0,1_19 - p0 + p1 >= 0
 R43: 545 x0,1_19 - p0 + p1 <= 564
 R44: - 25 x0,1_25 - p0 + p1 >= 0
 R45: 545 x0,1_25 - p0 + p1 <= 570
 R46: - 29 x0,1_29 - p0 + p1 >= 0
 R47: 545 x0,1_29 - p0 + p1 <= 574
 R48: - 37 x0,1_37 - p0 + p1 >= 0
 R49: 545 x0,1_37 - p0 + p1 <= 582
 R50: - 38 x0,1_38 - p0 + p1 >= 0
 R51: 545 x0,1_38 - p0 + p1 <= 583
 R52: - 42 x0,1_42 - p0 + p1 >= 0
 R53: 545 x0,1_42 - p0 + p1 <= 587
 R54: - 43 x0,1_43 - p0 + p1 >= 0
 R55: 545 x0,1_43 - p0 + p1 <= 588
 R56: - 48 x0,1_48 - p0 + p1 >= 0
 R57: 545 x0,1_48 - p0 + p1 <= 593
 R58: - 56 x0,1_56 - p0 + p1 >= 0
 R59: 545 x0,1_56 - p0 + p1 <= 601
 R60: - 67 x0,1_67 - p0 + p1 >= 0
 R61: 545 x0,1_67 - p0 + p1 <= 612
 R62: - 85 x0,1_85 - p0 + p1 >= 0
 R63: 545 x0,1_85 - p0 + p1 <= 630
 R64: p0 - p2 <= -1
 R65: - 6 x0,2_6 - p0 + p2 >= 0
 R66: 545 x0,2_6 - p0 + p2 <= 551
 R67: - 13 x0,2_13 - p0 + p2 >= 0
 R68: 545 x0,2_13 - p0 + p2 <= 558
 R69: - 18 x0,2_18 - p0 + p2 >= 0
 R70: 545 x0,2_18 - p0 + p2 <= 563
 R71: - 19 x0,2_19 - p0 + p2 >= 0
 R72: 545 x0,2_19 - p0 + p2 <= 564
 R73: - 25 x0,2_25 - p0 + p2 >= 0
 R74: 545 x0,2_25 - p0 + p2 <= 570
 R75: - 29 x0,2_29 - p0 + p2 >= 0
 R76: 545 x0,2_29 - p0 + p2 <= 574
 R77: - 37 x0,2_37 - p0 + p2 >= 0
 R78: 545 x0,2_37 - p0 + p2 <= 582
 R79: - 38 x0,2_38 - p0 + p2 >= 0
 R80: 545 x0,2_38 - p0 + p2 <= 583
 R81: - 42 x0,2_42 - p0 + p2 >= 0
 R82: 545 x0,2_42 - p0 + p2 <= 587
 R83: - 43 x0,2_43 - p0 + p2 >= 0
 R84: 545 x0,2_43 - p0 + p2 <= 588
 R85: - 48 x0,2_48 - p0 + p2 >= 0
 R86: 545 x0,2_48 - p0 + p2 <= 593
 R87: - 56 x0,2_56 - p0 + p2 >= 0
 R88: 545 x0,2_56 - p0 + p2 <= 601
 R89: - 67 x0,2_67 - p0 + p2 >= 0
 R90: 545 x0,2_67 - p0 + p2 <= 612
 R91: - 85 x0,2_85 - p0 + p2 >= 0
 R92: 545 x0,2_85 - p0 + p2 <= 630
 R93: p0 - p3 <= -1
 R94: - 6 x0,3_6 - p0 + p3 >= 0
 R95: 545 x0,3_6 - p0 + p3 <= 551
 R96: - 13 x0,3_13 - p0 + p3 >= 0
 R97: 545 x0,3_13 - p0 + p3 <= 558
 R98: - 18 x0,3_18 - p0 + p3 >= 0
 R99: 545 x0,3_18 - p0 + p3 <= 563
 R100: - 19 x0,3_19 - p0 + p3 >= 0
 R101: 545 x0,3_19 - p0 + p3 <= 564
 R102: - 25 x0,3_25 - p0 + p3 >= 0
 R103: 545 x0,3_25 - p0 + p3 <= 570
 R104: - 29 x0,3_29 - p0 + p3 >= 0
 R105: 545 x0,3_29 - p0 + p3 <= 574
 R106: - 37 x0,3_37 - p0 + p3 >= 0
 R107: 545 x0,3_37 - p0 + p3 <= 582
 R108: - 38 x0,3_38 - p0 + p3 >= 0
 R109: 545 x0,3_38 - p0 + p3 <= 583
 R110: - 42 x0,3_42 - p0 + p3 >= 0
 R111: 545 x0,3_42 - p0 + p3 <= 587
 R112: - 43 x0,3_43 - p0 + p3 >= 0
 R113: 545 x0,3_43 - p0 + p3 <= 588
 R114: - 48 x0,3_48 - p0 + p3 >= 0
 R115: 545 x0,3_48 - p0 + p3 <= 593
 R116: - 56 x0,3_56 - p0 + p3 >= 0
 R117: 545 x0,3_56 - p0 + p3 <= 601
 R118: - 67 x0,3_67 - p0 + p3 >= 0
 R119: 545 x0,3_67 - p0 + p3 <= 612
 R120: - 85 x0,3_85 - p0 + p3 >= 0
 R121: 545 x0,3_85 - p0 + p3 <= 630
 R122: p0 - p4 <= -1
 R123: - 6 x0,4_6 - p0 + p4 >= 0
 R124: 545 x0,4_6 - p0 + p4 <= 551
 R125: - 13 x0,4_13 - p0 + p4 >= 0
 R126: 545 x0,4_13 - p0 + p4 <= 558
 R127: - 18 x0,4_18 - p0 + p4 >= 0
 R128: 545 x0,4_18 - p0 + p4 <= 563
 R129: - 19 x0,4_19 - p0 + p4 >= 0
 R130: 545 x0,4_19 - p0 + p4 <= 564
 R131: - 25 x0,4_25 - p0 + p4 >= 0
 R132: 545 x0,4_25 - p0 + p4 <= 570
 R133: - 29 x0,4_29 - p0 + p4 >= 0
 R134: 545 x0,4_29 - p0 + p4 <= 574
 R135: - 37 x0,4_37 - p0 + p4 >= 0
 R136: 545 x0,4_37 - p0 + p4 <= 582
 R137: - 38 x0,4_38 - p0 + p4 >= 0
 R138: 545 x0,4_38 - p0 + p4 <= 583
 R139: - 42 x0,4_42 - p0 + p4 >= 0
 R140: 545 x0,4_42 - p0 + p4 <= 587
 R141: - 43 x0,4_43 - p0 + p4 >= 0
 R142: 545 x0,4_43 - p0 + p4 <= 588
 R143: - 48 x0,4_48 - p0 + p4 >= 0
 R144: 545 x0,4_48 - p0 + p4 <= 593
 R145: - 56 x0,4_56 - p0 + p4 >= 0
 R146: 545 x0,4_56 - p0 + p4 <= 601
 R147: - 67 x0,4_67 - p0 + p4 >= 0
 R148: 545 x0,4_67 - p0 + p4 <= 612
 R149: - 85 x0,4_85 - p0 + p4 >= 0
 R150: 545 x0,4_85 - p0 + p4 <= 630
 R151: p0 - p5 <= -1
 R152: - 6 x0,5_6 - p0 + p5 >= 0
 R153: 545 x0,5_6 - p0 + p5 <= 551
 R154: - 13 x0,5_13 - p0 + p5 >= 0
 R155: 545 x0,5_13 - p0 + p5 <= 558
 R156: - 18 x0,5_18 - p0 + p5 >= 0
 R157: 545 x0,5_18 - p0 + p5 <= 563
 R158: - 19 x0,5_19 - p0 + p5 >= 0
 R159: 545 x0,5_19 - p0 + p5 <= 564
 R160: - 25 x0,5_25 - p0 + p5 >= 0
 R161: 545 x0,5_25 - p0 + p5 <= 570
 R162: - 29 x0,5_29 - p0 + p5 >= 0
 R163: 545 x0,5_29 - p0 + p5 <= 574
 R164: - 37 x0,5_37 - p0 + p5 >= 0
 R165: 545 x0,5_37 - p0 + p5 <= 582
 R166: - 38 x0,5_38 - p0 + p5 >= 0
 R167: 545 x0,5_38 - p0 + p5 <= 583
 R168: - 42 x0,5_42 - p0 + p5 >= 0
 R169: 545 x0,5_42 - p0 + p5 <= 587
 R170: - 43 x0,5_43 - p0 + p5 >= 0
 R171: 545 x0,5_43 - p0 + p5 <= 588
 R172: - 48 x0,5_48 - p0 + p5 >= 0
 R173: 545 x0,5_48 - p0 + p5 <= 593
 R174: - 56 x0,5_56 - p0 + p5 >= 0
 R175: 545 x0,5_56 - p0 + p5 <= 601
 R176: - 67 x0,5_67 - p0 + p5 >= 0
 R177: 545 x0,5_67 - p0 + p5 <= 612
 R178: - 85 x0,5_85 - p0 + p5 >= 0
 R179: 545 x0,5_85 - p0 + p5 <= 630
 R180: p0 - p6 <= -1
 R181: - 6 x0,6_6 - p0 + p6 >= 0
 R182: 545 x0,6_6 - p0 + p6 <= 551
 R183: - 13 x0,6_13 - p0 + p6 >= 0
 R184: 545 x0,6_13 - p0 + p6 <= 558
 R185: - 18 x0,6_18 - p0 + p6 >= 0
 R186: 545 x0,6_18 - p0 + p6 <= 563
 R187: - 19 x0,6_19 - p0 + p6 >= 0
 R188: 545 x0,6_19 - p0 + p6 <= 564
 R189: - 25 x0,6_25 - p0 + p6 >= 0
 R190: 545 x0,6_25 - p0 + p6 <= 570
 R191: - 29 x0,6_29 - p0 + p6 >= 0
 R192: 545 x0,6_29 - p0 + p6 <= 574
 R193: - 37 x0,6_37 - p0 + p6 >= 0
 R194: 545 x0,6_37 - p0 + p6 <= 582
 R195: - 38 x0,6_38 - p0 + p6 >= 0
 R196: 545 x0,6_38 - p0 + p6 <= 583
 R197: - 42 x0,6_42 - p0 + p6 >= 0
 R198: 545 x0,6_42 - p0 + p6 <= 587
 R199: - 43 x0,6_43 - p0 + p6 >= 0
 R200: 545 x0,6_43 - p0 + p6 <= 588
 R201: - 48 x0,6_48 - p0 + p6 >= 0
 R202: 545 x0,6_48 - p0 + p6 <= 593
 R203: - 56 x0,6_56 - p0 + p6 >= 0
 R204: 545 x0,6_56 - p0 + p6 <= 601
 R205: - 67 x0,6_67 - p0 + p6 >= 0
 R206: 545 x0,6_67 - p0 + p6 <= 612
 R207: - 85 x0,6_85 - p0 + p6 >= 0
 R208: 545 x0,6_85 - p0 + p6 <= 630
 R209: p1 - p2 <= -1
 R210: - 6 x1,2_6 - p1 + p2 >= 0
 R211: 545 x1,2_6 - p1 + p2 <= 551
 R212: - 13 x1,2_13 - p1 + p2 >= 0
 R213: 545 x1,2_13 - p1 + p2 <= 558
 R214: - 18 x1,2_18 - p1 + p2 >= 0
 R215: 545 x1,2_18 - p1 + p2 <= 563
 R216: - 19 x1,2_19 - p1 + p2 >= 0
 R217: 545 x1,2_19 - p1 + p2 <= 564
 R218: - 25 x1,2_25 - p1 + p2 >= 0
 R219: 545 x1,2_25 - p1 + p2 <= 570
 R220: - 29 x1,2_29 - p1 + p2 >= 0
 R221: 545 x1,2_29 - p1 + p2 <= 574
 R222: - 37 x1,2_37 - p1 + p2 >= 0
 R223: 545 x1,2_37 - p1 + p2 <= 582
 R224: - 38 x1,2_38 - p1 + p2 >= 0
 R225: 545 x1,2_38 - p1 + p2 <= 583
 R226: - 42 x1,2_42 - p1 + p2 >= 0
 R227: 545 x1,2_42 - p1 + p2 <= 587
 R228: - 43 x1,2_43 - p1 + p2 >= 0
 R229: 545 x1,2_43 - p1 + p2 <= 588
 R230: - 48 x1,2_48 - p1 + p2 >= 0
 R231: 545 x1,2_48 - p1 + p2 <= 593
 R232: - 56 x1,2_56 - p1 + p2 >= 0
 R233: 545 x1,2_56 - p1 + p2 <= 601
 R234: - 67 x1,2_67 - p1 + p2 >= 0
 R235: 545 x1,2_67 - p1 + p2 <= 612
 R236: - 85 x1,2_85 - p1 + p2 >= 0
 R237: 545 x1,2_85 - p1 + p2 <= 630
 R238: p1 - p3 <= -1
 R239: - 6 x1,3_6 - p1 + p3 >= 0
 R240: 545 x1,3_6 - p1 + p3 <= 551
 R241: - 13 x1,3_13 - p1 + p3 >= 0
 R242: 545 x1,3_13 - p1 + p3 <= 558
 R243: - 18 x1,3_18 - p1 + p3 >= 0
 R244: 545 x1,3_18 - p1 + p3 <= 563
 R245: - 19 x1,3_19 - p1 + p3 >= 0
 R246: 545 x1,3_19 - p1 + p3 <= 564
 R247: - 25 x1,3_25 - p1 + p3 >= 0
 R248: 545 x1,3_25 - p1 + p3 <= 570
 R249: - 29 x1,3_29 - p1 + p3 >= 0
 R250: 545 x1,3_29 - p1 + p3 <= 574
 R251: - 37 x1,3_37 - p1 + p3 >= 0
 R252: 545 x1,3_37 - p1 + p3 <= 582
 R253: - 38 x1,3_38 - p1 + p3 >= 0
 R254: 545 x1,3_38 - p1 + p3 <= 583
 R255: - 42 x1,3_42 - p1 + p3 >= 0
 R256: 545 x1,3_42 - p1 + p3 <= 587
 R257: - 43 x1,3_43 - p1 + p3 >= 0
 R258: 545 x1,3_43 - p1 + p3 <= 588
 R259: - 48 x1,3_48 - p1 + p3 >= 0
 R260: 545 x1,3_48 - p1 + p3 <= 593
 R261: - 56 x1,3_56 - p1 + p3 >= 0
 R262: 545 x1,3_56 - p1 + p3 <= 601
 R263: - 67 x1,3_67 - p1 + p3 >= 0
 R264: 545 x1,3_67 - p1 + p3 <= 612
 R265: - 85 x1,3_85 - p1 + p3 >= 0
 R266: 545 x1,3_85 - p1 + p3 <= 630
 R267: p1 - p4 <= -1
 R268: - 6 x1,4_6 - p1 + p4 >= 0
 R269: 545 x1,4_6 - p1 + p4 <= 551
 R270: - 13 x1,4_13 - p1 + p4 >= 0
 R271: 545 x1,4_13 - p1 + p4 <= 558
 R272: - 18 x1,4_18 - p1 + p4 >= 0
 R273: 545 x1,4_18 - p1 + p4 <= 563
 R274: - 19 x1,4_19 - p1 + p4 >= 0
 R275: 545 x1,4_19 - p1 + p4 <= 564
 R276: - 25 x1,4_25 - p1 + p4 >= 0
 R277: 545 x1,4_25 - p1 + p4 <= 570
 R278: - 29 x1,4_29 - p1 + p4 >= 0
 R279: 545 x1,4_29 - p1 + p4 <= 574
 R280: - 37 x1,4_37 - p1 + p4 >= 0
 R281: 545 x1,4_37 - p1 + p4 <= 582
 R282: - 38 x1,4_38 - p1 + p4 >= 0
 R283: 545 x1,4_38 - p1 + p4 <= 583
 R284: - 42 x1,4_42 - p1 + p4 >= 0
 R285: 545 x1,4_42 - p1 + p4 <= 587
 R286: - 43 x1,4_43 - p1 + p4 >= 0
 R287: 545 x1,4_43 - p1 + p4 <= 588
 R288: - 48 x1,4_48 - p1 + p4 >= 0
 R289: 545 x1,4_48 - p1 + p4 <= 593
 R290: - 56 x1,4_56 - p1 + p4 >= 0
 R291: 545 x1,4_56 - p1 + p4 <= 601
 R292: - 67 x1,4_67 - p1 + p4 >= 0
 R293: 545 x1,4_67 - p1 + p4 <= 612
 R294: - 85 x1,4_85 - p1 + p4 >= 0
 R295: 545 x1,4_85 - p1 + p4 <= 630
 R296: p1 - p5 <= -1
 R297: - 6 x1,5_6 - p1 + p5 >= 0
 R298: 545 x1,5_6 - p1 + p5 <= 551
 R299: - 13 x1,5_13 - p1 + p5 >= 0
 R300: 545 x1,5_13 - p1 + p5 <= 558
 R301: - 18 x1,5_18 - p1 + p5 >= 0
 R302: 545 x1,5_18 - p1 + p5 <= 563
 R303: - 19 x1,5_19 - p1 + p5 >= 0
 R304: 545 x1,5_19 - p1 + p5 <= 564
 R305: - 25 x1,5_25 - p1 + p5 >= 0
 R306: 545 x1,5_25 - p1 + p5 <= 570
 R307: - 29 x1,5_29 - p1 + p5 >= 0
 R308: 545 x1,5_29 - p1 + p5 <= 574
 R309: - 37 x1,5_37 - p1 + p5 >= 0
 R310: 545 x1,5_37 - p1 + p5 <= 582
 R311: - 38 x1,5_38 - p1 + p5 >= 0
 R312: 545 x1,5_38 - p1 + p5 <= 583
 R313: - 42 x1,5_42 - p1 + p5 >= 0
 R314: 545 x1,5_42 - p1 + p5 <= 587
 R315: - 43 x1,5_43 - p1 + p5 >= 0
 R316: 545 x1,5_43 - p1 + p5 <= 588
 R317: - 48 x1,5_48 - p1 + p5 >= 0
 R318: 545 x1,5_48 - p1 + p5 <= 593
 R319: - 56 x1,5_56 - p1 + p5 >= 0
 R320: 545 x1,5_56 - p1 + p5 <= 601
 R321: - 67 x1,5_67 - p1 + p5 >= 0
 R322: 545 x1,5_67 - p1 + p5 <= 612
 R323: - 85 x1,5_85 - p1 + p5 >= 0
 R324: 545 x1,5_85 - p1 + p5 <= 630
 R325: p1 - p6 <= -1
 R326: - 6 x1,6_6 - p1 + p6 >= 0
 R327: 545 x1,6_6 - p1 + p6 <= 551
 R328: - 13 x1,6_13 - p1 + p6 >= 0
 R329: 545 x1,6_13 - p1 + p6 <= 558
 R330: - 18 x1,6_18 - p1 + p6 >= 0
 R331: 545 x1,6_18 - p1 + p6 <= 563
 R332: - 19 x1,6_19 - p1 + p6 >= 0
 R333: 545 x1,6_19 - p1 + p6 <= 564
 R334: - 25 x1,6_25 - p1 + p6 >= 0
 R335: 545 x1,6_25 - p1 + p6 <= 570
 R336: - 29 x1,6_29 - p1 + p6 >= 0
 R337: 545 x1,6_29 - p1 + p6 <= 574
 R338: - 37 x1,6_37 - p1 + p6 >= 0
 R339: 545 x1,6_37 - p1 + p6 <= 582
 R340: - 38 x1,6_38 - p1 + p6 >= 0
 R341: 545 x1,6_38 - p1 + p6 <= 583
 R342: - 42 x1,6_42 - p1 + p6 >= 0
 R343: 545 x1,6_42 - p1 + p6 <= 587
 R344: - 43 x1,6_43 - p1 + p6 >= 0
 R345: 545 x1,6_43 - p1 + p6 <= 588
 R346: - 48 x1,6_48 - p1 + p6 >= 0
 R347: 545 x1,6_48 - p1 + p6 <= 593
 R348: - 56 x1,6_56 - p1 + p6 >= 0
 R349: 545 x1,6_56 - p1 + p6 <= 601
 R350: - 67 x1,6_67 - p1 + p6 >= 0
 R351: 545 x1,6_67 - p1 + p6 <= 612
 R352: - 85 x1,6_85 - p1 + p6 >= 0
 R353: 545 x1,6_85 - p1 + p6 <= 630
 R354: p2 - p3 <= -1
 R355: - 6 x2,3_6 - p2 + p3 >= 0
 R356: 545 x2,3_6 - p2 + p3 <= 551
 R357: - 13 x2,3_13 - p2 + p3 >= 0
 R358: 545 x2,3_13 - p2 + p3 <= 558
 R359: - 18 x2,3_18 - p2 + p3 >= 0
 R360: 545 x2,3_18 - p2 + p3 <= 563
 R361: - 19 x2,3_19 - p2 + p3 >= 0
 R362: 545 x2,3_19 - p2 + p3 <= 564
 R363: - 25 x2,3_25 - p2 + p3 >= 0
 R364: 545 x2,3_25 - p2 + p3 <= 570
 R365: - 29 x2,3_29 - p2 + p3 >= 0
 R366: 545 x2,3_29 - p2 + p3 <= 574
 R367: - 37 x2,3_37 - p2 + p3 >= 0
 R368: 545 x2,3_37 - p2 + p3 <= 582
 R369: - 38 x2,3_38 - p2 + p3 >= 0
 R370: 545 x2,3_38 - p2 + p3 <= 583
 R371: - 42 x2,3_42 - p2 + p3 >= 0
 R372: 545 x2,3_42 - p2 + p3 <= 587
 R373: - 43 x2,3_43 - p2 + p3 >= 0
 R374: 545 x2,3_43 - p2 + p3 <= 588
 R375: - 48 x2,3_48 - p2 + p3 >= 0
 R376: 545 x2,3_48 - p2 + p3 <= 593
 R377: - 56 x2,3_56 - p2 + p3 >= 0
 R378: 545 x2,3_56 - p2 + p3 <= 601
 R379: - 67 x2,3_67 - p2 + p3 >= 0
 R380: 545 x2,3_67 - p2 + p3 <= 612
 R381: - 85 x2,3_85 - p2 + p3 >= 0
 R382: 545 x2,3_85 - p2 + p3 <= 630
 R383: p2 - p4 <= -1
 R384: - 6 x2,4_6 - p2 + p4 >= 0
 R385: 545 x2,4_6 - p2 + p4 <= 551
 R386: - 13 x2,4_13 - p2 + p4 >= 0
 R387: 545 x2,4_13 - p2 + p4 <= 558
 R388: - 18 x2,4_18 - p2 + p4 >= 0
 R389: 545 x2,4_18 - p2 + p4 <= 563
 R390: - 19 x2,4_19 - p2 + p4 >= 0
 R391: 545 x2,4_19 - p2 + p4 <= 564
 R392: - 25 x2,4_25 - p2 + p4 >= 0
 R393: 545 x2,4_25 - p2 + p4 <= 570
 R394: - 29 x2,4_29 - p2 + p4 >= 0
 R395: 545 x2,4_29 - p2 + p4 <= 574
 R396: - 37 x2,4_37 - p2 + p4 >= 0
 R397: 545 x2,4_37 - p2 + p4 <= 582
 R398: - 38 x2,4_38 - p2 + p4 >= 0
 R399: 545 x2,4_38 - p2 + p4 <= 583
 R400: - 42 x2,4_42 - p2 + p4 >= 0
 R401: 545 x2,4_42 - p2 + p4 <= 587
 R402: - 43 x2,4_43 - p2 + p4 >= 0
 R403: 545 x2,4_43 - p2 + p4 <= 588
 R404: - 48 x2,4_48 - p2 + p4 >= 0
 R405: 545 x2,4_48 - p2 + p4 <= 593
 R406: - 56 x2,4_56 - p2 + p4 >= 0
 R407: 545 x2,4_56 - p2 + p4 <= 601
 R408: - 67 x2,4_67 - p2 + p4 >= 0
 R409: 545 x2,4_67 - p2 + p4 <= 612
 R410: - 85 x2,4_85 - p2 + p4 >= 0
 R411: 545 x2,4_85 - p2 + p4 <= 630
 R412: p2 - p5 <= -1
 R413: - 6 x2,5_6 - p2 + p5 >= 0
 R414: 545 x2,5_6 - p2 + p5 <= 551
 R415: - 13 x2,5_13 - p2 + p5 >= 0
 R416: 545 x2,5_13 - p2 + p5 <= 558
 R417: - 18 x2,5_18 - p2 + p5 >= 0
 R418: 545 x2,5_18 - p2 + p5 <= 563
 R419: - 19 x2,5_19 - p2 + p5 >= 0
 R420: 545 x2,5_19 - p2 + p5 <= 564
 R421: - 25 x2,5_25 - p2 + p5 >= 0
 R422: 545 x2,5_25 - p2 + p5 <= 570
 R423: - 29 x2,5_29 - p2 + p5 >= 0
 R424: 545 x2,5_29 - p2 + p5 <= 574
 R425: - 37 x2,5_37 - p2 + p5 >= 0
 R426: 545 x2,5_37 - p2 + p5 <= 582
 R427: - 38 x2,5_38 - p2 + p5 >= 0
 R428: 545 x2,5_38 - p2 + p5 <= 583
 R429: - 42 x2,5_42 - p2 + p5 >= 0
 R430: 545 x2,5_42 - p2 + p5 <= 587
 R431: - 43 x2,5_43 - p2 + p5 >= 0
 R432: 545 x2,5_43 - p2 + p5 <= 588
 R433: - 48 x2,5_48 - p2 + p5 >= 0
 R434: 545 x2,5_48 - p2 + p5 <= 593
 R435: - 56 x2,5_56 - p2 + p5 >= 0
 R436: 545 x2,5_56 - p2 + p5 <= 601
 R437: - 67 x2,5_67 - p2 + p5 >= 0
 R438: 545 x2,5_67 - p2 + p5 <= 612
 R439: - 85 x2,5_85 - p2 + p5 >= 0
 R440: 545 x2,5_85 - p2 + p5 <= 630
 R441: p2 - p6 <= -1
 R442: - 6 x2,6_6 - p2 + p6 >= 0
 R443: 545 x2,6_6 - p2 + p6 <= 551
 R444: - 13 x2,6_13 - p2 + p6 >= 0
 R445: 545 x2,6_13 - p2 + p6 <= 558
 R446: - 18 x2,6_18 - p2 + p6 >= 0
 R447: 545 x2,6_18 - p2 + p6 <= 563
 R448: - 19 x2,6_19 - p2 + p6 >= 0
 R449: 545 x2,6_19 - p2 + p6 <= 564
 R450: - 25 x2,6_25 - p2 + p6 >= 0
 R451: 545 x2,6_25 - p2 + p6 <= 570
 R452: - 29 x2,6_29 - p2 + p6 >= 0
 R453: 545 x2,6_29 - p2 + p6 <= 574
 R454: - 37 x2,6_37 - p2 + p6 >= 0
 R455: 545 x2,6_37 - p2 + p6 <= 582
 R456: - 38 x2,6_38 - p2 + p6 >= 0
 R457: 545 x2,6_38 - p2 + p6 <= 583
 R458: - 42 x2,6_42 - p2 + p6 >= 0
 R459: 545 x2,6_42 - p2 + p6 <= 587
 R460: - 43 x2,6_43 - p2 + p6 >= 0
 R461: 545 x2,6_43 - p2 + p6 <= 588
 R462: - 48 x2,6_48 - p2 + p6 >= 0
 R463: 545 x2,6_48 - p2 + p6 <= 593
 R464: - 56 x2,6_56 - p2 + p6 >= 0
 R465: 545 x2,6_56 - p2 + p6 <= 601
 R466: - 67 x2,6_67 - p2 + p6 >= 0
 R467: 545 x2,6_67 - p2 + p6 <= 612
 R468: - 85 x2,6_85 - p2 + p6 >= 0
 R469: 545 x2,6_85 - p2 + p6 <= 630
 R470: p3 - p4 <= -1
 R471: - 6 x3,4_6 - p3 + p4 >= 0
 R472: 545 x3,4_6 - p3 + p4 <= 551
 R473: - 13 x3,4_13 - p3 + p4 >= 0
 R474: 545 x3,4_13 - p3 + p4 <= 558
 R475: - 18 x3,4_18 - p3 + p4 >= 0
 R476: 545 x3,4_18 - p3 + p4 <= 563
 R477: - 19 x3,4_19 - p3 + p4 >= 0
 R478: 545 x3,4_19 - p3 + p4 <= 564
 R479: - 25 x3,4_25 - p3 + p4 >= 0
 R480: 545 x3,4_25 - p3 + p4 <= 570
 R481: - 29 x3,4_29 - p3 + p4 >= 0
 R482: 545 x3,4_29 - p3 + p4 <= 574
 R483: - 37 x3,4_37 - p3 + p4 >= 0
 R484: 545 x3,4_37 - p3 + p4 <= 582
 R485: - 38 x3,4_38 - p3 + p4 >= 0
 R486: 545 x3,4_38 - p3 + p4 <= 583
 R487: - 42 x3,4_42 - p3 + p4 >= 0
 R488: 545 x3,4_42 - p3 + p4 <= 587
 R489: - 43 x3,4_43 - p3 + p4 >= 0
 R490: 545 x3,4_43 - p3 + p4 <= 588
 R491: - 48 x3,4_48 - p3 + p4 >= 0
 R492: 545 x3,4_48 - p3 + p4 <= 593
 R493: - 56 x3,4_56 - p3 + p4 >= 0
 R494: 545 x3,4_56 - p3 + p4 <= 601
 R495: - 67 x3,4_67 - p3 + p4 >= 0
 R496: 545 x3,4_67 - p3 + p4 <= 612
 R497: - 85 x3,4_85 - p3 + p4 >= 0
 R498: 545 x3,4_85 - p3 + p4 <= 630
 R499: p3 - p5 <= -1
 R500: - 6 x3,5_6 - p3 + p5 >= 0
 R501: 545 x3,5_6 - p3 + p5 <= 551
 R502: - 13 x3,5_13 - p3 + p5 >= 0
 R503: 545 x3,5_13 - p3 + p5 <= 558
 R504: - 18 x3,5_18 - p3 + p5 >= 0
 R505: 545 x3,5_18 - p3 + p5 <= 563
 R506: - 19 x3,5_19 - p3 + p5 >= 0
 R507: 545 x3,5_19 - p3 + p5 <= 564
 R508: - 25 x3,5_25 - p3 + p5 >= 0
 R509: 545 x3,5_25 - p3 + p5 <= 570
 R510: - 29 x3,5_29 - p3 + p5 >= 0
 R511: 545 x3,5_29 - p3 + p5 <= 574
 R512: - 37 x3,5_37 - p3 + p5 >= 0
 R513: 545 x3,5_37 - p3 + p5 <= 582
 R514: - 38 x3,5_38 - p3 + p5 >= 0
 R515: 545 x3,5_38 - p3 + p5 <= 583
 R516: - 42 x3,5_42 - p3 + p5 >= 0
 R517: 545 x3,5_42 - p3 + p5 <= 587
 R518: - 43 x3,5_43 - p3 + p5 >= 0
 R519: 545 x3,5_43 - p3 + p5 <= 588
 R520: - 48 x3,5_48 - p3 + p5 >= 0
 R521: 545 x3,5_48 - p3 + p5 <= 593
 R522: - 56 x3,5_56 - p3 + p5 >= 0
 R523: 545 x3,5_56 - p3 + p5 <= 601
 R524: - 67 x3,5_67 - p3 + p5 >= 0
 R525: 545 x3,5_67 - p3 + p5 <= 612
 R526: - 85 x3,5_85 - p3 + p5 >= 0
 R527: 545 x3,5_85 - p3 + p5 <= 630
 R528: p3 - p6 <= -1
 R529: - 6 x3,6_6 - p3 + p6 >= 0
 R530: 545 x3,6_6 - p3 + p6 <= 551
 R531: - 13 x3,6_13 - p3 + p6 >= 0
 R532: 545 x3,6_13 - p3 + p6 <= 558
 R533: - 18 x3,6_18 - p3 + p6 >= 0
 R534: 545 x3,6_18 - p3 + p6 <= 563
 R535: - 19 x3,6_19 - p3 + p6 >= 0
 R536: 545 x3,6_19 - p3 + p6 <= 564
 R537: - 25 x3,6_25 - p3 + p6 >= 0
 R538: 545 x3,6_25 - p3 + p6 <= 570
 R539: - 29 x3,6_29 - p3 + p6 >= 0
 R540: 545 x3,6_29 - p3 + p6 <= 574
 R541: - 37 x3,6_37 - p3 + p6 >= 0
 R542: 545 x3,6_37 - p3 + p6 <= 582
 R543: - 38 x3,6_38 - p3 + p6 >= 0
 R544: 545 x3,6_38 - p3 + p6 <= 583
 R545: - 42 x3,6_42 - p3 + p6 >= 0
 R546: 545 x3,6_42 - p3 + p6 <= 587
 R547: - 43 x3,6_43 - p3 + p6 >= 0
 R548: 545 x3,6_43 - p3 + p6 <= 588
 R549: - 48 x3,6_48 - p3 + p6 >= 0
 R550: 545 x3,6_48 - p3 + p6 <= 593
 R551: - 56 x3,6_56 - p3 + p6 >= 0
 R552: 545 x3,6_56 - p3 + p6 <= 601
 R553: - 67 x3,6_67 - p3 + p6 >= 0
 R554: 545 x3,6_67 - p3 + p6 <= 612
 R555: - 85 x3,6_85 - p3 + p6 >= 0
 R556: 545 x3,6_85 - p3 + p6 <= 630
 R557: p4 - p5 <= -1
 R558: - 6 x4,5_6 - p4 + p5 >= 0
 R559: 545 x4,5_6 - p4 + p5 <= 551
 R560: - 13 x4,5_13 - p4 + p5 >= 0
 R561: 545 x4,5_13 - p4 + p5 <= 558
 R562: - 18 x4,5_18 - p4 + p5 >= 0
 R563: 545 x4,5_18 - p4 + p5 <= 563
 R564: - 19 x4,5_19 - p4 + p5 >= 0
 R565: 545 x4,5_19 - p4 + p5 <= 564
 R566: - 25 x4,5_25 - p4 + p5 >= 0
 R567: 545 x4,5_25 - p4 + p5 <= 570
 R568: - 29 x4,5_29 - p4 + p5 >= 0
 R569: 545 x4,5_29 - p4 + p5 <= 574
 R570: - 37 x4,5_37 - p4 + p5 >= 0
 R571: 545 x4,5_37 - p4 + p5 <= 582
 R572: - 38 x4,5_38 - p4 + p5 >= 0
 R573: 545 x4,5_38 - p4 + p5 <= 583
 R574: - 42 x4,5_42 - p4 + p5 >= 0
 R575: 545 x4,5_42 - p4 + p5 <= 587
 R576: - 43 x4,5_43 - p4 + p5 >= 0
 R577: 545 x4,5_43 - p4 + p5 <= 588
 R578: - 48 x4,5_48 - p4 + p5 >= 0
 R579: 545 x4,5_48 - p4 + p5 <= 593
 R580: - 56 x4,5_56 - p4 + p5 >= 0
 R581: 545 x4,5_56 - p4 + p5 <= 601
 R582: - 67 x4,5_67 - p4 + p5 >= 0
 R583: 545 x4,5_67 - p4 + p5 <= 612
 R584: - 85 x4,5_85 - p4 + p5 >= 0
 R585: 545 x4,5_85 - p4 + p5 <= 630
 R586: p4 - p6 <= -1
 R587: - 6 x4,6_6 - p4 + p6 >= 0
 R588: 545 x4,6_6 - p4 + p6 <= 551
 R589: - 13 x4,6_13 - p4 + p6 >= 0
 R590: 545 x4,6_13 - p4 + p6 <= 558
 R591: - 18 x4,6_18 - p4 + p6 >= 0
 R592: 545 x4,6_18 - p4 + p6 <= 563
 R593: - 19 x4,6_19 - p4 + p6 >= 0
 R594: 545 x4,6_19 - p4 + p6 <= 564
 R595: - 25 x4,6_25 - p4 + p6 >= 0
 R596: 545 x4,6_25 - p4 + p6 <= 570
 R597: - 29 x4,6_29 - p4 + p6 >= 0
 R598: 545 x4,6_29 - p4 + p6 <= 574
 R599: - 37 x4,6_37 - p4 + p6 >= 0
 R600: 545 x4,6_37 - p4 + p6 <= 582
 R601: - 38 x4,6_38 - p4 + p6 >= 0
 R602: 545 x4,6_38 - p4 + p6 <= 583
 R603: - 42 x4,6_42 - p4 + p6 >= 0
 R604: 545 x4,6_42 - p4 + p6 <= 587
 R605: - 43 x4,6_43 - p4 + p6 >= 0
 R606: 545 x4,6_43 - p4 + p6 <= 588
 R607: - 48 x4,6_48 - p4 + p6 >= 0
 R608: 545 x4,6_48 - p4 + p6 <= 593
 R609: - 56 x4,6_56 - p4 + p6 >= 0
 R610: 545 x4,6_56 - p4 + p6 <= 601
 R611: - 67 x4,6_67 - p4 + p6 >= 0
 R612: 545 x4,6_67 - p4 + p6 <= 612
 R613: - 85 x4,6_85 - p4 + p6 >= 0
 R614: 545 x4,6_85 - p4 + p6 <= 630
 R615: p5 - p6 <= -1
 R616: - 6 x5,6_6 - p5 + p6 >= 0
 R617: 545 x5,6_6 - p5 + p6 <= 551
 R618: - 13 x5,6_13 - p5 + p6 >= 0
 R619: 545 x5,6_13 - p5 + p6 <= 558
 R620: - 18 x5,6_18 - p5 + p6 >= 0
 R621: 545 x5,6_18 - p5 + p6 <= 563
 R622: - 19 x5,6_19 - p5 + p6 >= 0
 R623: 545 x5,6_19 - p5 + p6 <= 564
 R624: - 25 x5,6_25 - p5 + p6 >= 0
 R625: 545 x5,6_25 - p5 + p6 <= 570
 R626: - 29 x5,6_29 - p5 + p6 >= 0
 R627: 545 x5,6_29 - p5 + p6 <= 574
 R628: - 37 x5,6_37 - p5 + p6 >= 0
 R629: 545 x5,6_37 - p5 + p6 <= 582
 R630: - 38 x5,6_38 - p5 + p6 >= 0
 R631: 545 x5,6_38 - p5 + p6 <= 583
 R632: - 42 x5,6_42 - p5 + p6 >= 0
 R633: 545 x5,6_42 - p5 + p6 <= 587
 R634: - 43 x5,6_43 - p5 + p6 >= 0
 R635: 545 x5,6_43 - p5 + p6 <= 588
 R636: - 48 x5,6_48 - p5 + p6 >= 0
 R637: 545 x5,6_48 - p5 + p6 <= 593
 R638: - 56 x5,6_56 - p5 + p6 >= 0
 R639: 545 x5,6_56 - p5 + p6 <= 601
 R640: - 67 x5,6_67 - p5 + p6 >= 0
 R641: 545 x5,6_67 - p5 + p6 <= 612
 R642: - 85 x5,6_85 - p5 + p6 >= 0
 R643: 545 x5,6_85 - p5 + p6 <= 630
Bounds
Binaries
 x0,1_6 x0,1_13 x0,1_18 x0,1_19 x0,1_25 x0,1_29 x0,1_37 x0,1_38 x0,1_42
 x0,1_43 x0,1_48 x0,1_56 x0,1_67 x0,1_85 x0,2_6 x0,2_13 x0,2_18 x0,2_19
 x0,2_25 x0,2_29 x0,2_37 x0,2_38 x0,2_42 x0,2_43 x0,2_48 x0,2_56 x0,2_67
 x0,2_85 x0,3_6 x0,3_13 x0,3_18 x0,3_19 x0,3_25 x0,3_29 x0,3_37 x0,3_38
 x0,3_42 x0,3_43 x0,3_48 x0,3_56 x0,3_67 x0,3_85 x0,4_6 x0,4_13 x0,4_18
 x0,4_19 x0,4_25 x0,4_29 x0,4_37 x0,4_38 x0,4_42 x0,4_43 x0,4_48 x0,4_56
 x0,4_67 x0,4_85 x0,5_6 x0,5_13 x0,5_18 x0,5_19 x0,5_25 x0,5_29 x0,5_37
 x0,5_38 x0,5_42 x0,5_43 x0,5_48 x0,5_56 x0,5_67 x0,5_85 x0,6_6 x0,6_13
 x0,6_18 x0,6_19 x0,6_25 x0,6_29 x0,6_37 x0,6_38 x0,6_42 x0,6_43 x0,6_48
 x0,6_56 x0,6_67 x0,6_85 x1,2_6 x1,2_13 x1,2_18 x1,2_19 x1,2_25 x1,2_29
 x1,2_37 x1,2_38 x1,2_42 x1,2_43 x1,2_48 x1,2_56 x1,2_67 x1,2_85 x1,3_6
 x1,3_13 x1,3_18 x1,3_19 x1,3_25 x1,3_29 x1,3_37 x1,3_38 x1,3_42 x1,3_43
 x1,3_48 x1,3_56 x1,3_67 x1,3_85 x1,4_6 x1,4_13 x1,4_18 x1,4_19 x1,4_25
 x1,4_29 x1,4_37 x1,4_38 x1,4_42 x1,4_43 x1,4_48 x1,4_56 x1,4_67 x1,4_85
 x1,5_6 x1,5_13 x1,5_18 x1,5_19 x1,5_25 x1,5_29 x1,5_37 x1,5_38 x1,5_42
 x1,5_43 x1,5_48 x1,5_56 x1,5_67 x1,5_85 x1,6_6 x1,6_13 x1,6_18 x1,6_19
 x1,6_25 x1,6_29 x1,6_37 x1,6_38 x1,6_42 x1,6_43 x1,6_48 x1,6_56 x1,6_67
 x1,6_85 x2,3_6 x2,3_13 x2,3_18 x2,3_19 x2,3_25 x2,3_29 x2,3_37 x2,3_38
 x2,3_42 x2,3_43 x2,3_48 x2,3_56 x2,3_67 x2,3_85 x2,4_6 x2,4_13 x2,4_18
 x2,4_19 x2,4_25 x2,4_29 x2,4_37 x2,4_38 x2,4_42 x2,4_43 x2,4_48 x2,4_56
 x2,4_67 x2,4_85 x2,5_6 x2,5_13 x2,5_18 x2,5_19 x2,5_25 x2,5_29 x2,5_37
 x2,5_38 x2,5_42 x2,5_43 x2,5_48 x2,5_56 x2,5_67 x2,5_85 x2,6_6 x2,6_13
 x2,6_18 x2,6_19 x2,6_25 x2,6_29 x2,6_37 x2,6_38 x2,6_42 x2,6_43 x2,6_48
 x2,6_56 x2,6_67 x2,6_85 x3,4_6 x3,4_13 x3,4_18 x3,4_19 x3,4_25 x3,4_29
 x3,4_37 x3,4_38 x3,4_42 x3,4_43 x3,4_48 x3,4_56 x3,4_67 x3,4_85 x3,5_6
 x3,5_13 x3,5_18 x3,5_19 x3,5_25 x3,5_29 x3,5_37 x3,5_38 x3,5_42 x3,5_43
 x3,5_48 x3,5_56 x3,5_67 x3,5_85 x3,6_6 x3,6_13 x3,6_18 x3,6_19 x3,6_25
 x3,6_29 x3,6_37 x3,6_38 x3,6_42 x3,6_43 x3,6_48 x3,6_56 x3,6_67 x3,6_85
 x4,5_6 x4,5_13 x4,5_18 x4,5_19 x4,5_25 x4,5_29 x4,5_37 x4,5_38 x4,5_42
 x4,5_43 x4,5_48 x4,5_56 x4,5_67 x4,5_85 x4,6_6 x4,6_13 x4,6_18 x4,6_19
 x4,6_25 x4,6_29 x4,6_37 x4,6_38 x4,6_42 x4,6_43 x4,6_48 x4,6_56 x4,6_67
 x4,6_85 x5,6_6 x5,6_13 x5,6_18 x5,6_19 x5,6_25 x5,6_29 x5,6_37 x5,6_38
 x5,6_42 x5,6_43 x5,6_48 x5,6_56 x5,6_67 x5,6_85
Generals
 p0 p1 p2 p3 p4 p5 p6
End
